60
10 86
19 81
1 68
15 11
3 52
4 39
22 30
5 50
23 90
24 18
21 62
7 68
11 89
13 84
29 9
6 26
26 70
28 55
17 8
9 44
13 19
18 92
23 56
25 34
1 87
29 70
20 44
22 15
30 10
30 56
11 68
19 16
22 38
15 26
20 38
27 3
26 4
11 56
20 91
17 55
6 40
25 25
11 17
8 66
4 40
29 48
5 6
26 48
25 36
25 40
25 46
29 33
19 92
22 59
5 30
11 11
7 93
19 56
13 78
27 39
